638.01,59.02,67.4
566.12,66.51,75.96
555.13,67.83,77.46
511.76,73.57,84.03
572.33,65.79,75.13
588.96,63.93,73.01
545.37,69.04,78.85
552.7,68.12,77.8
575.12,65.47,74.77
572.72,65.74,75.08
583.48,64.53,73.7
643.35,58.53,66.84
621.34,60.6,69.21
593.54,63.44,72.45
515.08,73.1,83.49
585.4,64.32,73.46
638.14,59.0,67.39
575.8,65.39,74.68
531.75,70.81,80.87
548.72,68.62,78.37
